# Solution for model r5_t18_m0_1 Batch Number: 4
# Finished Task: 17 / 18
# Makespan: 513.0, Total Distance: 393.0, Total Time: 1.1318
# R O S F Batch
0 0 5 0.0 0.0 -1
1 1 14 0.0 0.0 -1
2 2 20 0.0 0.0 -1
3 3 21 0.0 0.0 -1
4 4 19 0.0 0.0 -1
5 0 10 358.0 379.0 0
6 -1 -1 -1.0 -1.0 3
7 3 -1 398.0 426.0 2
8 2 16 87.0 118.0 0
9 1 18 107.0 146.0 0
10 0 -1 392.0 431.0 2
11 4 -1 260.0 298.0 0
12 2 15 417.0 453.0 3
13 1 -1 340.0 379.0 1
14 1 9 66.0 97.0 0
15 2 -1 483.0 513.0 3
16 2 17 312.0 340.0 1
17 2 12 368.0 401.0 2
18 1 22 165.0 188.0 0
19 4 11 202.0 235.0 0
20 2 8 27.0 60.0 0
21 3 7 51.0 81.0 0
22 1 13 283.0 316.0 1
